50 10644

300
198
2
277
306
216
470
336
388
336
367
16
147
341
260
403
464
112
326
322
341
125
460
223
349
79
435
307
445
54
352
20
398
225
370
445
110
71
373
10
255
390
411
93
149
214
386
357
108
164
